
Log started (V11.0.0) Sun Apr 13 16:58:11 2008

Tried aggregator 1 time.
Reduced MIP has 520 rows, 10001 columns, and 20020 nonzeros.
Presolve time =    0.06 sec.
Clique table members: 500.
MIP emphasis: balance optimality and feasibility.
MIP search method: dynamic search.
Parallel mode: none, using 1 thread.
Root relaxation solution time =    0.25 sec.

        Nodes                                         Cuts/
   Node  Left     Objective  IInf  Best Integer     Best Node    ItCnt     Gap

*     0+    0                        25182.0000      129.2124      804   99.49%
*     0+    0                          143.0000      129.2124      804    9.64%
      0     0      130.0000    31      143.0000      Fract: 8      817    9.09%
*     0+    0                          142.0000      130.0000      817    8.45%
      0     0      130.0000    32      142.0000     Covers: 1      819    8.45%
*     0+    0                          140.0000      130.0000      819    7.14%
      0     0      130.0000    32      140.0000     Covers: 2      825    7.14%
*     0+    0                          139.0000      130.0000      825    6.47%
*     0+    0                          138.0000      130.0000      825    5.80%
*     0+    0                          134.0000      130.0000      825    2.99%
      0     2      130.0000    32      134.0000      130.0000      825    2.99%
*    10+   10                          133.0000      130.0000     1116    2.26%
*    30+   30                          132.0000      130.0000     1945    1.52%
    100    73      131.0000    33      132.0000      130.0000     8521    1.52%
    200   130    infeasible            132.0000      130.0000    13598    1.52%
    300   196      130.0000    34      132.0000      130.0000    18176    1.52%
    400   266      131.0000    30      132.0000      130.0000    23442    1.52%
*   497+   90                          131.0000      130.0000    31958    0.76%
    500    92      130.0000    46      131.0000      130.0000    33723    0.76%
    600    93      130.0000    46      131.0000      130.0000    39175    0.76%
    700   150      130.0000    62      131.0000      130.0000    46844    0.76%
    800   216      130.0000    65      131.0000      130.0000    56591    0.76%
    900   280    infeasible            131.0000      130.0000    69323    0.76%
   1000   339      130.0000    46      131.0000      130.0000    83451    0.76%
Elapsed time =  31.73 sec. (tree size =  2.97 MB, solutions = 10)
   1100   395      130.0000    80      131.0000      130.0000    98722    0.76%
   1200   447      130.0000   116      131.0000      130.0000   116961    0.76%
   1300   495      130.0000    82      131.0000      130.0000   134009    0.76%
   1400   563      130.0000    79      131.0000      130.0000   148965    0.76%
   1500   601      130.0000    85      131.0000      130.0000   172709    0.76%
   1600   687      130.0000    49      131.0000      130.0000   183730    0.76%
   1700   737      130.0000   103      131.0000      130.0000   202107    0.76%
   1800   817      130.0000    99      131.0000      130.0000   217287    0.76%
   1900   867      130.0000    77      131.0000      130.0000   235636    0.76%
   2000   931      130.0000    61      131.0000      130.0000   253520    0.76%
Elapsed time =  94.92 sec. (tree size = 12.44 MB, solutions = 10)
   2100   983      130.0000    94      131.0000      130.0000   274586    0.76%
   2200  1021      130.0000    78      131.0000      130.0000   298922    0.76%
   2300  1081      130.0000    93      131.0000      130.0000   320675    0.76%
   2400  1121    infeasible            131.0000      130.0000   346966    0.76%
   2500  1163      130.0000   105      131.0000      130.0000   373976    0.76%
   2600  1237      130.0000    73      131.0000      130.0000   390117    0.76%
*  2653     0      integral     0      130.0000      130.0000   400109    0.00%

Cover cuts applied:  1440
Zero-half cuts applied:  2
Gomory fractional cuts applied:  7

Solution pool: 11 solutions saved.

MIP - Integer optimal solution:  Objective = 1.3000000000e+002
Solution time =  171.92 sec.  Iterations = 400109  Nodes = 2654


Incumbent solution
Variable Name           Solution Value
Cmax                        130.000000
X_1_20                        1.000000
X_2_17                        1.000000
X_3_12                        1.000000
X_4_17                        1.000000
X_5_15                        1.000000
X_6_2                         1.000000
X_7_11                        1.000000
X_8_1                         1.000000
X_9_3                         1.000000
X_10_20                       1.000000
X_11_8                        1.000000
X_12_18                       1.000000
X_13_19                       1.000000
X_14_4                        1.000000
X_15_4                        1.000000
X_16_19                       1.000000
X_17_5                        1.000000
X_18_19                       1.000000
X_19_8                        1.000000
X_20_13                       1.000000
X_21_12                       1.000000
X_22_1                        1.000000
X_23_13                       1.000000
X_24_6                        1.000000
X_25_15                       1.000000
X_26_20                       1.000000
X_27_11                       1.000000
X_28_13                       1.000000
X_29_6                        1.000000
X_30_16                       1.000000
X_31_13                       1.000000
X_32_1                        1.000000
X_33_7                        1.000000
X_34_5                        1.000000
X_35_19                       1.000000
X_36_18                       1.000000
X_37_3                        1.000000
X_38_19                       1.000000
X_39_5                        1.000000
X_40_15                       1.000000
X_41_15                       1.000000
X_42_12                       1.000000
X_43_5                        1.000000
X_44_7                        1.000000
X_45_2                        1.000000
X_46_1                        1.000000
X_46_14                      -0.000000
X_47_12                       1.000000
X_48_12                       1.000000
X_49_11                       1.000000
X_50_2                        1.000000
X_51_9                        1.000000
X_52_14                       1.000000
X_53_1                        1.000000
X_54_16                       1.000000
X_55_15                       1.000000
X_56_10                       1.000000
X_57_18                       1.000000
X_58_19                       1.000000
X_59_15                       1.000000
X_60_20                       1.000000
X_61_11                       1.000000
X_62_18                       1.000000
X_63_4                        1.000000
X_64_6                        1.000000
X_65_16                       1.000000
X_66_13                       1.000000
X_67_19                       1.000000
X_68_4                        1.000000
X_69_10                       1.000000
X_70_16                       1.000000
X_71_9                        1.000000
X_72_2                        1.000000
X_73_6                        1.000000
X_74_2                        1.000000
X_75_10                       1.000000
X_76_5                        1.000000
X_77_16                       1.000000
X_78_19                       1.000000
X_79_3                        1.000000
X_80_4                        1.000000
X_81_3                        1.000000
X_82_6                        1.000000
X_83_5                        1.000000
X_84_9                        1.000000
X_85_13                       1.000000
X_86_10                       1.000000
X_87_18                       1.000000
X_88_9                        1.000000
X_89_17                       1.000000
X_90_6                        1.000000
X_91_17                       1.000000
X_92_8                        1.000000
X_93_7                        1.000000
X_94_7                        1.000000
X_95_2                        1.000000
X_96_17                       1.000000
X_97_8                        1.000000
X_98_14                       1.000000
X_99_1                        1.000000
X_100_1                       1.000000
X_101_8                       1.000000
X_102_4                       1.000000
X_103_3                       1.000000
X_104_1                       1.000000
X_105_13                      1.000000
X_106_18                      1.000000
X_107_8                       1.000000
X_108_6                       0.000000
X_108_7                       1.000000
X_109_3                       1.000000
X_110_3                       1.000000
X_111_7                       1.000000
X_112_11                      1.000000
X_113_20                      1.000000
X_114_3                       1.000000
X_115_12                      1.000000
X_116_10                      1.000000
X_117_6                       1.000000
X_118_12                      1.000000
X_119_3                       1.000000
X_119_12                     -0.000000
X_120_1                       1.000000
X_121_11                      1.000000
X_122_5                       1.000000
X_123_4                       1.000000
X_124_16                      1.000000
X_125_19                      1.000000
X_126_16                      1.000000
X_127_8                       1.000000
X_128_5                       1.000000
X_129_2                       1.000000
X_130_8                       1.000000
X_131_15                      1.000000
X_132_18                      1.000000
X_133_3                       1.000000
X_134_11                      1.000000
X_135_4                       1.000000
X_136_3                       1.000000
X_137_12                      1.000000
X_138_12                      1.000000
X_139_11                      1.000000
X_140_1                       1.000000
X_141_3                       1.000000
X_142_8                       1.000000
X_143_17                      1.000000
X_144_10                      1.000000
X_145_9                       1.000000
X_146_19                      1.000000
X_147_18                      1.000000
X_148_16                      1.000000
X_149_7                       1.000000
X_150_12                      1.000000
X_151_7                       1.000000
X_152_15                      1.000000
X_153_5                       1.000000
X_154_16                      1.000000
X_155_8                       1.000000
X_156_5                       1.000000
X_156_12                     -0.000000
X_157_18                      1.000000
X_158_13                      1.000000
X_159_8                       1.000000
X_160_6                       1.000000
X_161_1                       1.000000
X_162_18                      1.000000
X_163_19                      1.000000
X_164_1                       1.000000
X_165_17                      1.000000
X_166_11                      1.000000
X_167_16                      1.000000
X_168_14                      1.000000
X_169_6                       1.000000
X_170_14                      1.000000
X_171_14                      1.000000
X_172_4                       1.000000
X_173_7                       1.000000
X_174_8                       1.000000
X_175_3                       1.000000
X_176_3                       1.000000
X_177_8                       1.000000
X_178_2                       1.000000
X_179_4                       1.000000
X_180_11                      1.000000
X_181_20                      1.000000
X_182_13                      1.000000
X_183_1                       1.000000
X_184_10                      1.000000
X_185_7                       1.000000
X_186_3                       1.000000
X_187_6                       1.000000
X_188_5                       1.000000
X_189_16                      1.000000
X_190_2                       1.000000
X_191_12                      1.000000
X_192_2                       1.000000
X_193_17                      1.000000
X_194_17                      1.000000
X_195_5                       1.000000
X_196_7                       1.000000
X_197_1                       1.000000
X_198_17                      1.000000
X_199_1                       1.000000
X_200_4                       1.000000
X_201_6                       1.000000
X_202_16                      1.000000
X_203_14                      1.000000
X_204_8                       1.000000
X_204_20                     -0.000000
X_205_12                      1.000000
X_206_14                      1.000000
X_207_14                      1.000000
X_208_7                       1.000000
X_209_9                       1.000000
X_210_18                      1.000000
X_211_13                      1.000000
X_212_15                      1.000000
X_213_20                      1.000000
X_214_15                      1.000000
X_215_14                      1.000000
X_216_3                       1.000000
X_217_14                      1.000000
X_218_13                      1.000000
X_219_4                       1.000000
X_220_9                       1.000000
X_221_19                      1.000000
X_222_18                      1.000000
X_223_12                      1.000000
X_224_10                      1.000000
X_225_18                      1.000000
X_226_9                       1.000000
X_227_9                       1.000000
X_228_9                       1.000000
X_229_5                       1.000000
X_230_18                      1.000000
X_231_4                       1.000000
X_232_13                      1.000000
X_233_8                       1.000000
X_234_1                       1.000000
X_235_15                      1.000000
X_236_2                       1.000000
X_237_2                       1.000000
X_238_11                      1.000000
X_239_12                      1.000000
X_240_9                       1.000000
X_241_18                      1.000000
X_242_3                       1.000000
X_243_15                      1.000000
X_244_17                      1.000000
X_245_12                      1.000000
X_246_3                       1.000000
X_246_8                      -0.000000
X_247_14                      1.000000
X_248_12                      1.000000
X_249_5                       1.000000
X_250_17                      1.000000
X_251_10                      1.000000
X_252_2                       1.000000
X_253_13                      1.000000
X_254_20                      1.000000
X_255_18                      1.000000
X_256_17                      1.000000
X_257_15                      1.000000
X_258_13                      1.000000
X_259_1                       1.000000
X_260_9                       1.000000
X_261_19                      1.000000
X_262_11                      1.000000
X_263_8                      -0.000000
X_263_12                      1.000000
X_264_3                       1.000000
X_265_16                      1.000000
X_266_11                      1.000000
X_267_2                       1.000000
X_268_15                      1.000000
X_269_17                      1.000000
X_270_14                      1.000000
X_271_5                       1.000000
X_272_13                      1.000000
X_273_11                      1.000000
X_274_13                      1.000000
X_275_19                      1.000000
X_276_4                       1.000000
X_277_1                       1.000000
X_278_5                       1.000000
X_279_17                      1.000000
X_280_1                       1.000000
X_281_16                      1.000000
X_282_17                      1.000000
X_283_17                      1.000000
X_284_13                      1.000000
X_285_3                       1.000000
X_286_9                       1.000000
X_287_18                      1.000000
X_288_12                      1.000000
X_289_15                      1.000000
X_290_13                      1.000000
X_291_17                      1.000000
X_292_7                       1.000000
X_293_3                       1.000000
X_294_11                      1.000000
X_295_19                      1.000000
X_296_9                       1.000000
X_297_15                      1.000000
X_298_1                       1.000000
X_299_13                      1.000000
X_300_15                      1.000000
X_301_17                      1.000000
X_302_17                      1.000000
X_303_14                      1.000000
X_304_2                       1.000000
X_305_19                      1.000000
X_306_9                       1.000000
X_307_6                       1.000000
X_307_20                      0.000000
X_308_7                       1.000000
X_309_14                      1.000000
X_310_17                      1.000000
X_311_9                       1.000000
X_312_17                      1.000000
X_313_12                      1.000000
X_314_8                       1.000000
X_315_8                      -0.000000
X_315_14                      1.000000
X_316_6                       0.000000
X_316_7                      -0.000000
X_316_10                      1.000000
X_317_8                       1.000000
X_318_6                      -0.000000
X_318_7                       1.000000
X_319_10                      1.000000
X_320_18                      1.000000
X_321_8                       1.000000
X_322_15                      1.000000
X_323_7                       1.000000
X_324_14                      1.000000
X_325_12                      1.000000
X_326_7                       1.000000
X_327_8                       1.000000
X_328_17                      1.000000
X_329_15                      1.000000
X_330_12                      1.000000
X_331_4                       1.000000
X_332_9                       1.000000
X_333_16                      1.000000
X_334_18                      1.000000
X_335_11                      1.000000
X_336_2                       1.000000
X_337_10                      1.000000
X_337_20                     -0.000000
X_338_9                       1.000000
X_339_13                      1.000000
X_340_16                      1.000000
X_341_16                      1.000000
X_342_11                      1.000000
X_343_20                      1.000000
X_344_7                       1.000000
X_345_10                      1.000000
X_346_2                       1.000000
X_347_7                       1.000000
X_348_17                      1.000000
X_349_17                      1.000000
X_350_19                      1.000000
X_351_7                       1.000000
X_352_2                       1.000000
X_353_6                       1.000000
X_354_4                       1.000000
X_355_16                      1.000000
X_356_2                       1.000000
X_357_1                       1.000000
X_358_7                       1.000000
X_359_8                       1.000000
X_360_14                      1.000000
X_361_5                       1.000000
X_362_6                       1.000000
X_363_15                      1.000000
X_364_18                      1.000000
X_365_20                      1.000000
X_366_12                      1.000000
X_367_17                      1.000000
X_368_20                      1.000000
X_369_17                      1.000000
X_370_10                      1.000000
X_371_18                      1.000000
X_372_11                      1.000000
X_373_2                       1.000000
X_374_1                       1.000000
X_375_15                      1.000000
X_376_11                      1.000000
X_377_16                      1.000000
X_378_1                       1.000000
X_379_16                      1.000000
X_380_1                       1.000000
X_381_18                      1.000000
X_382_14                      1.000000
X_383_3                       1.000000
X_383_14                     -0.000000
X_384_11                      1.000000
X_385_1                       1.000000
X_386_4                       1.000000
X_387_8                       1.000000
X_388_15                      1.000000
X_389_6                       1.000000
X_390_17                      1.000000
X_391_17                      1.000000
X_392_4                       1.000000
X_393_19                      1.000000
X_394_5                       1.000000
X_395_18                      1.000000
X_396_3                       1.000000
X_397_15                      1.000000
X_398_2                       1.000000
X_399_18                      1.000000
X_400_18                      1.000000
X_401_3                       1.000000
X_402_7                       1.000000
X_403_2                       1.000000
X_404_6                       1.000000
X_405_1                       1.000000
X_406_18                      1.000000
X_407_16                      1.000000
X_408_13                      1.000000
X_409_16                      1.000000
X_410_20                      1.000000
X_411_2                       1.000000
X_412_14                      1.000000
X_413_5                       1.000000
X_414_8                       1.000000
X_415_12                      1.000000
X_416_17                      1.000000
X_417_3                       1.000000
X_418_10                      1.000000
X_419_20                      1.000000
X_420_9                       1.000000
X_421_10                      1.000000
X_422_3                       1.000000
X_422_10                      0.000000
X_423_2                       1.000000
X_424_10                      1.000000
X_425_5                       1.000000
X_426_6                       1.000000
X_427_14                      1.000000
X_428_10                      1.000000
X_429_6                       1.000000
X_430_18                      1.000000
X_431_14                      1.000000
X_432_2                       1.000000
X_433_7                       1.000000
X_434_6                       1.000000
X_435_14                      1.000000
X_436_1                       1.000000
X_437_14                      1.000000
X_438_5                       1.000000
X_439_17                      1.000000
X_440_1                       1.000000
X_441_11                      1.000000
X_442_20                      1.000000
X_443_2                       1.000000
X_444_10                      1.000000
X_445_1                       1.000000
X_445_5                      -0.000000
X_446_12                      1.000000
X_447_10                      1.000000
X_448_3                       1.000000
X_449_3                       1.000000
X_450_13                      1.000000
X_451_19                      1.000000
X_452_3                       1.000000
X_453_7                       1.000000
X_454_4                       1.000000
X_455_19                      1.000000
X_456_9                       1.000000
X_457_12                      1.000000
X_458_18                      1.000000
X_459_5                       1.000000
X_460_11                      1.000000
X_461_1                       1.000000
X_462_4                       1.000000
X_463_5                       1.000000
X_464_17                      1.000000
X_465_1                       1.000000
X_465_20                     -0.000000
X_466_15                      1.000000
X_467_20                      1.000000
X_468_2                       1.000000
X_469_12                      1.000000
X_470_13                      1.000000
X_471_20                      1.000000
X_472_3                      -0.000000
X_472_7                       1.000000
X_473_10                      1.000000
X_474_5                       1.000000
X_475_13                      1.000000
X_476_4                       1.000000
X_477_6                       1.000000
X_478_9                       1.000000
X_479_3                       1.000000
X_480_15                      1.000000
X_481_9                       1.000000
X_482_6                       1.000000
X_483_11                      1.000000
X_484_1                       1.000000
X_485_3                       1.000000
X_486_5                       1.000000
X_487_10                      1.000000
X_488_18                      1.000000
X_489_18                      1.000000
X_490_4                       1.000000
X_491_13                      1.000000
X_492_16                      1.000000
X_493_17                      1.000000
X_494_6                       1.000000
X_495_8                       1.000000
X_496_2                       1.000000
X_497_7                       1.000000
X_498_1                       1.000000
X_499_12                      1.000000
X_500_4                       1.000000
All other variables in the range 1-10001 are 0.
